gen	cost
1	1464
2	1447
3	1410
4	1393
5	1391
6	1378
7	1361
8	1354
9	1338
10	1326
11	1320
12	1312
13	1304
14	1298
15	1288
16	1279
17	1260
18	1250
19	1247
20	1243
21	1240
22	1239
23	1228
24	1226
25	1223
26	1218
27	1216
28	1215
29	1212
30	1200
31	1198
32	1196
33	1192
34	1190
35	1186
36	1182
37	1182
38	1181
39	1180
40	1180
41	1180
42	1179
43	1176
44	1173
45	1169
46	1169
47	1169
48	1169
49	1169
50	1169

